100 1873
445 399 793 896 567 529 200 165 241 723 391 802 770 1099 881 501 146 296 159 1004 457 304 200 820 593 508 761 427 306 248 354 717 410 711 525 115 358 420 507 779 714 891 413 704 1001 901 596 993 450 346 221 144 895 1073 717 921 539 163 204 194 895 486 241 905 625 605 514 712 145 341 862 670 849 250 618 800 737 664 1076 997 516 813 623 695 347 139 859 948 516 404 744 268 495 758 479 734 316 1078 757 227 
345 299 693 796 467 429 100 65 141 623 291 702 670 999 781 401 46 196 59 904 357 204 100 720 493 408 661 327 206 148 254 617 310 611 425 15 258 320 407 679 614 791 313 604 901 801 496 893 350 246 121 44 795 973 617 821 439 63 104 94 795 386 141 805 525 505 414 612 45 241 762 570 749 150 518 700 637 564 976 897 416 713 523 595 247 39 759 848 416 304 644 168 395 658 379 634 216 978 657 127 
